100 90471

 886 899
464 293
712 293
728 485
717 899
925 447
416 803
216 692
80 983
779 892
480 412
902 508
891 734
547 786
801 890
18 244
165 420
525 929
202 960
741 154
346 816
366 424
977 273
448 936
513 647
319 825
217 520
34 128
871 373
266 568
640 638
724 159
775 571
824 570
80 652
677 176
413 927
252 620
12 211
401 447
816 586
724 167
282 460
112 916
723 357
378 304
751 233
268 327
917 884
298 182
317 634
570 334
509 715
950 967
546 29
775 714
365 93
547 841
271 868
961 688
474 330
739 723
537 184
234 95
59 785
251 649
847 749
86 353
763 930
390 941
180 984
719 265
856 647
149 656
583 19
121 743
765 646
605 626
256 499
766 139
864 637
800 716
309 573
59 762
69 810
446 525
388 908
86 255
786 85
227 458
593 532
626 562
184 676
792 92
322 600
909 69
318 37
566 765
399 764
709 140
